NAME 
ROWS
 N  OBJ
 L  R0      
 L  R1      
 E  R2      
 E  R3      
 E  R4      
 E  R5      
 E  R6      
 E  R7      
 E  R8      
 E  R9      
 E  R10     
 E  R11     
 E  R12     
 E  R13     
 E  R14     
 E  R15     
 E  R16     
COLUMNS
    MARKER    'MARKER'                 'INTORG'
    I0(8)     OBJ       -128
    I0(8)     R0        42
    I0(8)     R1        199
    I0(8)     R2        -1
    I0(8)     R4        17
    I0(8)     R5        15
    I0(8)     R6        12
    I0(8)     R7        -1
    I0(8)     R16       1
    I1(8)     OBJ       -149
    I1(8)     R0        134
    I1(8)     R1        -129
    I1(8)     R2        -1
    I1(8)     R3        6
    I1(8)     R4        19
    I1(8)     R5        8
    I1(8)     R7        3
    I1(8)     R16       1
    I2(7)     OBJ       160
    I2(7)     R0        -68
    I2(7)     R1        -171
    I2(7)     R4        3
    I2(7)     R5        11
    I2(7)     R6        17
    I2(7)     R7        11
    I2(7)     R16       1
    I3(9)     OBJ       15
    I3(9)     R0        97
    I3(9)     R1        37
    I3(9)     R2        11
    I3(9)     R3        1
    I3(9)     R4        9
    I3(9)     R5        14
    I3(9)     R6        18
    I3(9)     R7        7
    I3(9)     R16       1
    I4(7)     OBJ       -31
    I4(7)     R0        -189
    I4(7)     R1        -168
    I4(7)     R2        9
    I4(7)     R5        2
    I4(7)     R6        18
    I4(7)     R7        8
    I4(7)     R16       1
    I5(9)     OBJ       -32
    I5(9)     R0        1
    I5(9)     R1        139
    I5(9)     R2        11
    I5(9)     R3        9
    I5(9)     R4        17
    I5(9)     R5        3
    I5(9)     R6        18
    I5(9)     R7        17
    I5(9)     R16       1
    MARKER    'MARKER'                 'INTEND'
    C6(14)    OBJ       5
    C6(14)    R0        -1
    C6(14)    R1        9
    C6(14)    R2        19
    C6(14)    R5        10
    C6(14)    R6        12
    C6(14)    R7        2
    C6(14)    R8        2
    C6(14)    R9        15
    C6(14)    R10       1
    C6(14)    R11       8
    C6(14)    R12       1
    C6(14)    R13       4
    C6(14)    R14       7
    C6(14)    R15       5
    C7(14)    OBJ       8
    C7(14)    R0        -6
    C7(14)    R1        -7
    C7(14)    R2        8
    C7(14)    R3        6
    C7(14)    R4        9
    C7(14)    R6        4
    C7(14)    R7        19
    C7(14)    R9        7
    C7(14)    R10       11
    C7(14)    R11       15
    C7(14)    R12       13
    C7(14)    R13       -1
    C7(14)    R14       18
    C7(14)    R15       16
    C8(14)    OBJ       6
    C8(14)    R0        -1
    C8(14)    R2        2
    C8(14)    R3        3
    C8(14)    R4        14
    C8(14)    R5        2
    C8(14)    R6        1
    C8(14)    R8        6
    C8(14)    R9        9
    C8(14)    R10       15
    C8(14)    R11       8
    C8(14)    R12       5
    C8(14)    R13       10
    C8(14)    R14       17
    C8(14)    R15       8
    C9(13)    OBJ       -4
    C9(13)    R0        2
    C9(13)    R1        -3
    C9(13)    R2        1
    C9(13)    R3        19
    C9(13)    R4        17
    C9(13)    R5        1
    C9(13)    R6        15
    C9(13)    R7        6
    C9(13)    R9        16
    C9(13)    R10       14
    C9(13)    R12       14
    C9(13)    R13       9
    C9(13)    R14       1
    C10(11)   OBJ       9
    C10(11)   R0        9
    C10(11)   R3        10
    C10(11)   R4        9
    C10(11)   R6        10
    C10(11)   R7        7
    C10(11)   R8        1
    C10(11)   R9        13
    C10(11)   R10       16
    C10(11)   R11       15
    C10(11)   R13       9
    C10(11)   R15       16
    C11(13)   OBJ       -6
    C11(13)   R0        6
    C11(13)   R1        1
    C11(13)   R2        16
    C11(13)   R3        3
    C11(13)   R4        -1
    C11(13)   R6        -1
    C11(13)   R7        3
    C11(13)   R8        12
    C11(13)   R9        18
    C11(13)   R11       18
    C11(13)   R12       5
    C11(13)   R13       13
    C11(13)   R15       9
    C12(10)   OBJ       7
    C12(10)   R0        9
    C12(10)   R1        4
    C12(10)   R2        17
    C12(10)   R3        10
    C12(10)   R4        -1
    C12(10)   R5        9
    C12(10)   R9        12
    C12(10)   R10       6
    C12(10)   R11       3
    C12(10)   R12       1
    C13(12)   OBJ       -9
    C13(12)   R0        -6
    C13(12)   R1        -2
    C13(12)   R3        11
    C13(12)   R5        5
    C13(12)   R7        17
    C13(12)   R8        -1
    C13(12)   R9        5
    C13(12)   R10       4
    C13(12)   R12       9
    C13(12)   R13       14
    C13(12)   R14       18
    C13(12)   R15       12
    C14(14)   OBJ       2
    C14(14)   R0        -9
    C14(14)   R1        4
    C14(14)   R2        2
    C14(14)   R3        16
    C14(14)   R4        16
    C14(14)   R5        17
    C14(14)   R6        5
    C14(14)   R9        6
    C14(14)   R10       2
    C14(14)   R11       4
    C14(14)   R12       15
    C14(14)   R13       17
    C14(14)   R14       14
    C14(14)   R15       12
    C15(1)    R2        1
    C16(1)    R3        1
    C17(1)    R4        1
    C18(1)    R5        1
    C19(1)    R6        1
    C20(1)    R7        1
    C21(1)    R8        1
    C22(1)    R9        1
    C23(1)    R10       1
    C24(1)    R11       1
    C25(1)    R12       1
    C26(1)    R13       1
    C27(1)    R14       1
    C28(1)    R15       1
    C29(1)    R16       1
RHS
    RHS1      R0        2.8526315789473614e+02
    RHS1      R1        -2.5875584795321646e+02
    RHS1      R2        85
    RHS1      R3        51
    RHS1      R4        84
    RHS1      R5        56
    RHS1      R6        88
    RHS1      R7        53
    RHS1      R8        61
    RHS1      R9        91
    RHS1      R10       64
    RHS1      R11       70
    RHS1      R12       71
    RHS1      R13       97
    RHS1      R14       69
    RHS1      R15       50
    RHS1      R16       2
BOUNDS
 UP BND1      I0(8)     2
 UP BND1      I1(8)     2
 UP BND1      I2(7)     2
 UP BND1      I3(9)     2
 UP BND1      I4(7)     2
 UP BND1      I5(9)     2
ENDATA
